NAME: ant5
TYPE: TSP
COMMENT: 21-city problem (Groetschel)
DIMENSION: 5
EDGE_WEIGHT_TYPE: EXPLICIT
EDGE_WEIGHT_FORMAT: LOWER_DIAG_ROW 
EDGE_WEIGHT_SECTION
  0  
  -  0 
  2  6  0 
  4  -  9  0 
  5  -  1  3  0                                    
EOF            

